artifact/ReVEAL/exp2_solver1/compress2rs/compress2rs_64_result_cec_1/64_64_U1_WT_LF_Multgen_compress2rs.txt
ABC command line: "cec /data/artifact/AMulet2.0_artifact/64_compress2rs/64_64_U1_WT_LF_Multgen_compress2rs.aig /data/artifact/AMulet2.0_artifact/64_default/64_64_U1_WT_RC_Multgen_default.aig".

Networks are equivalent.  Time =    14.15 sec
