artifact/ReVEAL/exp2_solver1/compress2rs/compress2rs_64_result_kissat/64_64_U1_WT_LF_Multgen_compress2rs.result
c ---- [ banner ] ------------------------------------------------------------
c
c Kissat SAT Solver
c 
c Copyright (c) 2021-2024 Armin Biere University of Freiburg
c Copyright (c) 2019-2021 Armin Biere Johannes Kepler University Linz
c 
c Version 4.0.1 43f02cf3e992cb44653b35e5cb26f93281552ae0
c gcc (Ubuntu 13.2.0-23ubuntu4) 13.2.0 -W -Wall -O3 -DNDEBUG
c Thu Sep 12 12:27:46 CEST 2024 Linux abryzen9 6.8.0-41-generic x86_64
c
c ---- [ parsing ] -----------------------------------------------------------
c
c opened and reading DIMACS file:
c
c   /data/artifact/AMulet2.0_artifact/exp4/cnf_compress2rs_64/64_64_U1_WT_LF_Multgen_compress2rs.cnf
c
c parsed 'p cnf 36477 141817' header
c closing input after reading 2760142 bytes (3 MB)
c finished parsing after 0.02 seconds
c
c ---- [ options ] -----------------------------------------------------------
c
c --stable=0                       (different from default '1')
c
c ---- [ solving ] -----------------------------------------------------------
c
c  seconds switched rate     size/glue tier1  binary           remaining
c         MB reductions conflicts size  tier2     irredundant
c          level restarts redundant glue  trail           variables
c
c *  0.02 11 0 0 0  0 0   0   0 0.0 0 0 0 0 0% 29326 112489 36474 100%
c (  0.04 13 0 0 0  0 0   0   0 0.0 0 0 0 0 0% 29326 112489 36474 100%
c .  0.04 13 0 0 0  0 0   0   0 0.0 0 0 0 0 0% 29322 112489 36474 100%
c c  0.11 22 0 0 0  0 0   0   0 0.0 0 0 0 0 0% 36885 97602 32692 90%
c d  0.11 22 0 0 0  0 0   0   0 0.0 0 0 0 0 0% 29321 97602 32692 90%
c =  0.16 22 0 0 0  0 0   0   0 0.0 0 0 0 0 0% 29707 97602 32420 89%
c d  0.16 22 0 0 0  0 0   0   0 0.0 0 0 0 0 0% 29163 97602 32420 89%
c f  0.23 20 0 0 0  0 0   0   0 0.0 0 0 0 0 0% 32110 92893 34182 94%
c e  0.33 29 0 0 0  0 0   0   0 0.0 0 0 0 0 0% 10352 107025 23128 63%
c )  0.33 29 0 0 0  0 0   0   0 0.0 0 0 0 0 0% 10352 107025 23128 63%
c {  0.35 29 0 0 0  0 0   0   0 0.0 0 0 2 6 0% 10352 107025 23128 63%
c -  0.45 29 103 0 1 286 26 1000 709 2.5 11 5 3 7 14% 10443 107013 23128 63%
c -  0.65 29 153 0 2 526 37 2000 1479 3.8 20 5 3 9 19% 10463 107013 23128 63%
c c  0.80 25 232 0 2 620 42 2503 1928 4.3 24 5 3 8 20% 10476 107000 23125 63%
c d  0.80 25 232 0 2 620 42 2503 1928 4.3 24 5 3 8 20% 10470 107000 23125 63%
c u  0.81 25 232 0 2 620 42 2503 1418 4.3 24 5 3 8 20% 10483 107000 23125 63%
c v  0.83 25 232 0 2 620 42 2503 1224 4.3 24 5 3 8 20% 10483 107000 23125 63%
c w  0.85 25 232 0 2 620 42 2503 1224 4.3 24 5 3 8 20% 10483 107000 23125 63%
c x  0.86 26 232 0 2 620 42 2503 1224 4.3 24 5 3 8 20% 10579 106809 23125 63%
c =  0.92 26 232 0 2 620 42 2503 1224 4.3 24 5 3 8 20% 10857 106809 22986 63%
c
c  seconds   switched   rate       size/glue tier1    binary           remaining
c         MB  reductions conflicts       size  tier2      irredundant
c           level restarts    redundant    glue   trail           variables
c
c d  0.92 26 232 0 2 620 42 2503 1222 4.3 24 5 3 8 20% 10576 106809 22985 63%
c t  0.93 26 232 0 2 620 42 2503 1222 4.3 24 5 3 8 20% 10574 106809 22985 63%
c f  0.95 26 232 0 2 620 42 2503 1222 4.3 24 5 3 8 20% 11225 105543 23599 65%
c u  0.97 26 232 0 2 620 42 2503 1140 4.3 24 5 3 8 20% 11231 105543 23599 65%
c v  0.98 26 232 0 2 620 42 2503 1110 4.3 24 5 3 8 20% 11231 105543 23599 65%
c w  1.01 26 232 0 2 620 42 2503 1092 4.3 24 5 3 8 20% 11231 105543 23599 65%
c =  1.07 28 232 0 2 620 42 2503 1092 4.3 24 5 3 8 20% 11601 105543 23414 64%
c d  1.08 28 232 0 2 620 42 2503 1092 4.3 24 5 3 8 20% 11184 105543 23414 64%
c f  1.11 28 232 0 2 620 42 2503 1092 4.3 24 5 3 8 20% 11600 104919 23622 65%
c -  1.30 28 279 0 3 727 42 3414 1618 4.8 28 6 3 8 23% 11654 104917 23622 65%
c -  1.52 28 383 0 4 899 42 5149 2759 4.6 25 5 2 8 23% 11743 104906 23622 65%
c -  1.79 28 382 0 5 1074 40 7149 3922 4.7 26 5 2 8 23% 11844 104899 23622 65%
c c  1.85 28 410 0 5 1077 38 7709 4414 4.6 24 5 2 8 22% 11873 104798 23597 65%
c d  1.86 28 410 0 5 1077 38 7709 4407 4.6 24 5 2 8 22% 11821 104798 23596 65%
c u  1.88 28 410 0 5 1077 38 7709 3340 4.6 24 5 2 8 22% 11842 104798 23596 65%
c v  1.89 28 410 0 5 1077 38 7709 2879 4.6 24 5 2 8 22% 11842 104798 23596 65%
c w  1.90 28 410 0 5 1077 38 7709 2873 4.6 24 5 2 8 22% 11842 104798 23596 65%
c =  1.98 28 410 0 5 1077 38 7709 2873 4.6 24 5 2 8 22% 12596 104798 23219 64%
c d  1.99 28 410 0 5 1077 38 7709 2865 4.6 24 5 2 8 22% 11755 104798 23216 64%
c t  2.01 28 410 0 5 1077 38 7709 2865 4.6 24 5 2 8 22% 11743 104798 23216 64%
c
c  seconds   switched    rate       size/glue tier1    binary           remaining
c         MB  reductions  conflicts       size  tier2      irredundant
c           level  restarts    redundant    glue   trail           variables
c
c f  2.05 28 410 0 5 1077 38 7709 2865 4.6 24 5 2 8 22% 13566 102063 24128 66%
c u  2.11 28 410 0 5 1077 38 7709 2745 4.6 24 5 2 8 22% 13568 102063 24128 66%
c v  2.12 28 410 0 5 1077 38 7709 2676 4.6 24 5 2 8 22% 13568 102063 24128 66%
c w  2.13 28 410 0 5 1077 38 7709 2674 4.6 24 5 2 8 22% 13568 102063 24128 66%
c x  2.16 28 410 0 5 1077 38 7709 2674 4.6 24 5 2 8 22% 13597 96922 24128 66%
c =  2.24 28 410 0 5 1077 38 7709 2674 4.6 24 5 2 8 22% 14145 96920 23854 65%
c d  2.25 28 410 0 5 1077 38 7709 2665 4.6 24 5 2 8 22% 13543 96920 23854 65%
c t  2.26 28 410 0 5 1077 38 7709 2665 4.6 24 5 2 8 22% 13504 96920 23854 65%
c f  2.29 28 410 0 5 1077 38 7709 2665 4.6 24 5 2 8 22% 13737 96569 23972 66%
c -  2.51 28 417 0 6 1202 38 9385 3625 4.7 24 5 2 7 22% 13848 96559 23972 66%
c o  2.60 28 428 0 6 1225 38 10001 4164 4.5 24 5 2 7 22% 13874 96558 23972 66%
c -  2.90 28 409 0 7 1408 36 11835 5278 4.4 23 5 2 6 22% 13926 96558 23972 66%
c s  2.99 28 405 0 7 1460 36 12511 5867 4.3 23 5 2 6 22% 13963 94904 23972 66%
c e  3.08 28 405 0 7 1460 36 12511 5867 4.3 23 5 2 6 22% 11703 96410 22222 61%
c s  3.10 28 405 0 7 1460 36 12511 5867 4.3 23 5 2 6 22% 11714 95219 22222 61%
c e  3.12 28 405 0 7 1460 36 12511 5867 4.3 23 5 2 6 22% 11710 95223 22220 61%
c ^  3.12 28 405 0 7 1460 36 12511 5867 4.3 23 5 2 6 22% 11710 95223 22220 61%
c -  3.55 28 384 0 8 1692 37 14482 6141 4.5 25 6 2 6 22% 11787 95219 22220 61%
c d  3.80 28 377 0 8 1833 37 15787 7238 4.6 26 6 2 6 22% 11589 95217 22070 61%
c u  3.83 28 377 0 8 1833 37 15787 5637 4.6 26 6 2 6 22% 11609 95217 22070 61%
c
c  seconds   switched    rate        size/glue tier1    binary          remaining
c         MB  reductions   conflicts       size  tier2      irredundant
c           level  restarts     redundant    glue   trail          variables
c
c v  3.85 28 377 0 8 1833 37 15787 5004 4.6 26 6 2 6 22% 11610 95217 22070 61%
c w  3.92 28 377 0 8 1833 37 15787 5004 4.6 26 6 2 6 22% 11610 95217 22070 61%
c x  3.95 28 377 0 8 1833 37 15787 5004 4.6 26 6 2 6 22% 11661 93835 22070 61%
c =  4.10 28 377 0 8 1833 37 15787 5004 4.6 26 6 2 6 22% 13469 93835 21166 58%
c d  4.11 28 377 0 8 1833 37 15787 4906 4.6 26 6 2 6 22% 11252 93835 21164 58%
c t  4.12 28 377 0 8 1833 37 15787 4906 4.6 26 6 2 6 22% 11230 93835 21164 58%
c f  4.17 28 377 0 8 1833 37 15787 4906 4.6 26 6 2 6 22% 11240 93805 21174 58%
c c  4.24 28 377 0 8 1833 37 15787 4904 4.6 26 6 2 6 22% 11242 93799 21173 58%
c d  4.24 28 377 0 8 1833 37 15787 4904 4.6 26 6 2 6 22% 11240 93799 21173 58%
c u  4.26 28 377 0 8 1833 37 15787 4540 4.6 26 6 2 6 22% 11245 93799 21173 58%
c v  4.28 28 377 0 8 1833 37 15787 4447 4.6 26 6 2 6 22% 11246 93799 21173 58%
c w  4.34 28 377 0 8 1833 37 15787 4405 4.6 26 6 2 6 22% 11246 93799 21173 58%
c x  4.37 28 377 0 8 1833 37 15787 4405 4.6 26 6 2 6 22% 11254 92255 21173 58%
c =  4.52 28 377 0 8 1833 37 15787 4405 4.6 26 6 2 6 22% 12762 92253 20419 56%
c d  4.52 28 377 0 8 1833 37 15787 4369 4.6 26 6 2 6 22% 10935 92253 20419 56%
c f  4.55 28 377 0 8 1833 37 15787 4369 4.6 26 6 2 6 22% 10941 92231 20426 56%
c -  4.73 28 395 0 9 1922 36 17318 5127 4.4 25 6 2 6 22% 10980 92230 20426 56%
c o  5.10 28 394 0 9 2127 35 20006 7518 4.3 25 6 2 6 22% 11026 92230 20426 56%
c -  5.23 28 391 0 10 2173 35 20318 7016 4.4 26 6 2 6 23% 11032 92230 20426 56%
c -  5.70 28 387 0 11 2426 34 23480 8819 4.2 26 6 2 6 23% 11108 92225 20426 56%
c
c  seconds   switched     rate         size/glue tier1    binary          remaining
c         MB   reductions   conflicts        size  tier2      irredundant
c           level   restarts      redundant    glue   trail          variables
c
c s  5.92 28 383 0 11 2573 34 25013 10147 4.1 26 6 2 6 23% 11149 91261 20426 56%
c e  6.02 28 383 0 11 2573 34 25013 10147 4.1 26 6 2 6 23% 9783 94771 17798 49%
c s  6.03 28 383 0 11 2573 34 25013 10147 4.1 26 6 2 6 23% 9824 90957 17798 49%
c e  6.06 28 383 0 11 2573 34 25013 10147 4.1 26 6 2 6 23% 9797 90988 17784 49%
c ^  6.06 28 383 0 11 2573 34 25013 10147 4.1 26 6 2 6 23% 9797 90988 17784 49%
c -  6.33 28 364 0 12 2718 33 26796 8899 4.0 25 6 2 6 23% 9813 90988 17784 49%
c d  6.36 28 363 0 12 2731 33 26913 8993 4.0 25 6 2 6 23% 9755 90988 17742 49%
c u  6.39 28 363 0 12 2731 33 26913 7297 4.0 25 6 2 6 23% 9776 90988 17742 49%
c v  6.42 28 363 0 12 2731 33 26913 6335 4.0 25 6 2 6 23% 9778 90988 17742 49%
c w  6.42 28 363 0 12 2731 33 26913 6330 4.0 25 6 2 6 23% 9778 90988 17742 49%
c x  6.48 28 363 0 12 2731 33 26913 6325 4.0 25 6 2 6 23% 9831 88052 17742 49%
c =  6.67 28 363 0 12 2731 33 26913 6325 4.0 25 6 2 6 23% 11403 88046 16956 46%
c d  6.68 28 363 0 12 2731 33 26913 6198 4.0 25 6 2 6 23% 9762 88046 16952 46%
c t  6.69 28 363 0 12 2731 33 26913 6198 4.0 25 6 2 6 23% 9714 88046 16952 46%
c f  6.75 28 363 0 12 2731 33 26913 6198 4.0 25 6 2 6 23% 9708 87951 16974 47%
c u  6.78 28 363 0 12 2731 33 26913 5755 4.0 25 6 2 6 23% 9715 87951 16974 47%
c v  6.80 28 363 0 12 2731 33 26913 5620 4.0 25 6 2 6 23% 9715 87951 16974 47%
c w  6.80 28 363 0 12 2731 33 26913 5617 4.0 25 6 2 6 23% 9715 87951 16974 47%
c x  6.88 28 363 0 12 2731 33 26913 5616 4.0 25 6 2 6 23% 9733 83176 16974 47%
c =  7.05 28 363 0 12 2731 33 26913 5616 4.0 25 6 2 6 23% 11747 83176 15967 44%
c
c  seconds   switched     rate        size/glue tier1    binary         remaining
c         MB   reductions   conflicts       size  tier2     irredundant
c           level   restarts     redundant    glue   trail         variables
c
c d  7.05 28 363 0 12 2731 33 26913 5515 4.0 25 6 2 6 23% 9678 83176 15967 44%
c t  7.06 28 363 0 12 2731 33 26913 5515 4.0 25 6 2 6 23% 9677 83176 15967 44%
c f  7.09 28 363 0 12 2731 33 26913 5515 4.0 25 6 2 6 23% 9678 83168 15969 44%
c -  7.42 28 332 0 13 2949 31 30260 7507 3.7 23 6 2 6 23% 9716 83167 15969 44%
c -  7.81 28 306 0 14 3221 29 33865 9547 3.5 22 6 2 6 23% 9752 83165 15969 44%
c -  8.23 28 302 0 15 3560 29 37606 11361 3.5 22 6 2 6 23% 9790 83164 15969 44%
c o  8.56 28 293 0 15 3789 29 40008 13505 3.5 22 6 2 6 23% 9817 83163 15969 44%
c c  8.75 28 291 0 15 3903 30 41242 14586 3.5 22 6 2 6 23% 9905 82787 15892 44%
c d  8.75 28 291 0 15 3903 30 41242 14431 3.5 22 6 2 6 23% 9751 82787 15892 44%
c u  8.80 28 291 0 15 3903 30 41242 11956 3.5 22 6 2 6 23% 9780 82787 15892 44%
c v  8.84 28 291 0 15 3903 30 41242 10655 3.5 22 6 2 6 23% 9780 82787 15892 44%
c w  8.88 28 291 0 15 3903 30 41242 10655 3.5 22 6 2 6 23% 9780 82787 15892 44%
c x  8.93 29 291 0 15 3903 30 41242 10655 3.5 22 6 2 6 23% 9781 77546 15892 44%
c =  9.09 29 291 0 15 3903 30 41242 10655 3.5 22 6 2 6 23% 9783 77546 15891 44%
c d  9.09 29 291 0 15 3903 30 41242 10655 3.5 22 6 2 6 23% 9774 77546 15888 44%
c t  9.10 29 291 0 15 3903 30 41242 10655 3.5 22 6 2 6 23% 9764 77546 15888 44%
c u  9.15 29 291 0 15 3903 30 41242 10308 3.5 22 6 2 6 23% 9771 77546 15888 44%
c v  9.18 29 291 0 15 3903 30 41242 10006 3.5 22 6 2 6 23% 9771 77546 15888 44%
c w  9.25 29 291 0 15 3903 30 41242 10000 3.5 22 6 2 6 23% 9771 77546 15888 44%
c x  9.29 29 291 0 15 3903 30 41242 10000 3.5 22 6 2 6 23% 9784 76996 15888 44%
c
c  seconds   switched     rate        size/glue tier1    binary         remaining
c         MB   reductions   conflicts       size  tier2     irredundant
c           level   restarts     redundant    glue   trail         variables
c
c d  9.29 29 291 0 15 3903 30 41242 9999 3.5 22 6 2 6 23% 9782 76996 15887 44%
c t  9.31 29 291 0 15 3903 30 41242 9999 3.5 22 6 2 6 23% 9775 76996 15887 44%
c -  9.34 29 291 0 16 3912 30 41478 9138 3.5 22 6 2 6 23% 9775 76996 15887 44%
c -  9.76 29 281 0 17 4144 29 45478 11452 3.4 21 6 2 6 23% 9819 76994 15887 44%
c - 10.18 29 268 0 18 4414 28 49605 13541 3.4 21 6 2 5 23% 9890 76993 15887 44%
c s 10.36 29 264 0 18 4506 27 52114 15802 3.4 21 6 2 5 23% 9906 74007 15887 44%
c e 10.44 29 264 0 18 4506 27 52114 15802 3.4 21 6 2 5 23% 8133 77223 14522 40%
c 2 10.44 29 264 0 18 4506 27 52114 15802 3.4 21 6 2 5 23% 8132 77223 14522 40%
c s 10.45 29 264 0 18 4506 27 52114 15802 3.4 21 6 2 5 23% 8161 76375 14522 40%
c e 10.46 29 264 0 18 4506 27 52114 15802 3.4 21 6 2 5 23% 8160 76380 14516 40%
c ^ 10.46 29 264 0 18 4506 27 52114 15802 3.4 21 6 2 5 23% 8160 76380 14516 40%
c - 10.65 29 258 0 19 4622 27 53847 11832 3.4 20 6 1 5 23% 8177 76380 14516 40%
c - 11.13 29 246 0 20 4994 26 58206 13047 3.2 20 6 1 5 23% 8247 76376 14516 40%
c c 11.23 29 245 0 20 5050 26 58881 13632 3.2 20 6 1 5 23% 8341 75926 14436 40%
c d 11.24 29 245 0 20 5050 26 58881 13499 3.2 20 6 1 5 23% 8181 75926 14436 40%
c u 11.27 29 245 0 20 5050 26 58881 12172 3.2 20 6 1 5 23% 8206 75926 14436 40%
c v 11.31 29 245 0 20 5050 26 58881 10145 3.2 20 6 1 5 23% 8216 75926 14436 40%
c w 11.34 29 245 0 20 5050 26 58881 10002 3.2 20 6 1 5 23% 8216 75926 14436 40%
c x 11.39 29 245 0 20 5050 26 58881 9997 3.2 20 6 1 5 23% 8219 75573 14436 40%
c = 11.61 29 245 0 20 5050 26 58881 9997 3.2 20 6 1 5 23% 9103 75573 13994 38%
c
c  seconds   switched     rate        size/glue tier1    binary         remaining
c         MB   reductions   conflicts       size  tier2     irredundant
c           level   restarts     redundant    glue   trail         variables
c
c d 11.61 29 245 0 20 5050 26 58881 9666 3.2 20 6 1 5 23% 8125 75573 13994 38%
c t 11.62 29 245 0 20 5050 26 58881 9666 3.2 20 6 1 5 23% 8111 75573 13994 38%
c f 11.67 29 245 0 20 5050 26 58881 9666 3.2 20 6 1 5 23% 8131 75503 14003 38%
c u 11.73 29 245 0 20 5050 26 58881 9151 3.2 20 6 1 5 23% 8135 75503 14003 38%
c v 11.75 29 245 0 20 5050 26 58881 8739 3.2 20 6 1 5 23% 8135 75503 14003 38%
c w 11.78 29 245 0 20 5050 26 58881 8690 3.2 20 6 1 5 23% 8135 75503 14003 38%
c x 11.88 29 245 0 20 5050 26 58881 8680 3.2 20 6 1 5 23% 8188 72045 14003 38%
c t 12.09 29 245 0 20 5050 26 58881 8680 3.2 20 6 1 5 23% 8165 72045 14003 38%
c - 12.58 29 234 0 21 5367 25 62678 10193 3.1 19 6 1 5 23% 8176 72044 14003 38%
c - 13.01 29 226 0 22 5704 24 67260 12012 3.0 19 6 1 5 23% 8212 72043 14003 38%
c o 13.28 29 226 0 22 5959 24 70286 14701 3.0 18 6 1 5 23% 8247 72042 14003 38%
c - 13.55 29 223 0 23 6189 24 71950 13582 3.0 19 6 1 5 23% 8256 72042 14003 38%
c - 13.98 29 226 0 24 6551 24 76748 14944 3.0 18 6 1 5 23% 8307 72041 14003 38%
c d 14.62 29 221 0 24 7107 24 79966 17862 3.0 19 6 1 5 24% 8248 72040 13964 38%
c u 14.65 29 221 0 24 7107 24 79966 16112 3.0 19 6 1 5 24% 8271 72040 13964 38%
c v 14.71 29 221 0 24 7107 24 79966 13669 3.0 19 6 1 5 24% 8276 72040 13964 38%
c w 14.80 29 221 0 24 7107 24 79966 13629 3.0 19 6 1 5 24% 8276 72040 13964 38%
c x 14.85 29 221 0 24 7107 24 79966 13629 3.0 19 6 1 5 24% 8280 71999 13964 38%
c d 14.86 29 221 0 24 7107 24 79966 13618 3.0 19 6 1 5 24% 8270 71999 13959 38%
c t 14.87 29 221 0 24 7107 24 79966 13618 3.0 19 6 1 5 24% 8261 71999 13959 38%
c
c  seconds   switched     rate         size/glue tier1    binary         remaining
c         MB   reductions   conflicts        size  tier2     irredundant
c           level   restarts      redundant    glue   trail         variables
c
c c 14.92 29 221 0 24 7107 24 79966 13618 3.0 19 6 1 5 24% 8292 71867 13942 38%
c d 14.92 29 221 0 24 7107 24 79966 13585 3.0 19 6 1 5 24% 8258 71867 13942 38%
c u 14.95 29 221 0 24 7107 24 79966 13248 3.0 19 6 1 5 24% 8262 71867 13942 38%
c v 14.99 29 221 0 24 7107 24 79966 12744 3.0 19 6 1 5 24% 8263 71867 13942 38%
c w 15.18 29 221 0 24 7107 24 79966 12354 3.0 19 6 1 5 24% 8263 71867 13942 38%
c = 15.42 29 221 0 24 7107 24 79966 12354 3.0 19 6 1 5 24% 8427 71867 13860 38%
c d 15.43 29 221 0 24 7107 24 79966 12327 3.0 19 6 1 5 24% 8255 71867 13858 38%
c t 15.44 29 221 0 24 7107 24 79966 12327 3.0 19 6 1 5 24% 8243 71867 13858 38%
c f 15.44 29 221 0 24 7107 24 79966 12327 3.0 19 6 1 5 24% 8244 71849 13861 38%
c - 15.67 29 217 0 25 7220 24 81646 11860 2.9 19 6 1 5 24% 8254 71849 13861 38%
c - 16.45 29 211 0 26 7761 24 86647 14270 2.9 18 6 1 5 24% 8275 71849 13861 38%
c - 17.06 29 203 0 27 8183 23 91748 16331 2.8 18 6 1 5 24% 8305 71849 13861 38%
c s 17.54 29 200 0 27 8571 23 95806 19755 2.8 18 6 1 5 24% 8339 71190 13861 38%
c e 17.64 29 200 0 27 8571 23 95806 19755 2.8 18 6 1 5 24% 5513 78788 12282 34%
c s 17.66 29 200 0 27 8571 23 95806 19755 2.8 18 6 1 5 24% 5543 78072 12282 34%
c e 17.67 29 200 0 27 8571 23 95806 19755 2.8 18 6 1 5 24% 5477 78269 12232 34%
c ^ 17.67 29 200 0 27 8571 23 95806 19755 2.8 18 6 1 5 24% 5477 78269 12232 34%
c - 17.77 29 200 0 28 8620 23 96944 13604 2.8 18 6 1 5 24% 5488 78269 12232 34%
c - 18.62 29 195 0 29 9350 23 102236 15622 2.8 18 7 1 5 24% 5529 78268 12232 34%
c c 18.87 29 195 0 29 9549 23 104608 17682 2.8 18 7 1 5 24% 5624 77937 12164 33%
c
c  seconds   switched     rate          size/glue tier1    binary         remaining
c         MB   reductions   conflicts         size  tier2     irredundant
c           level   restarts       redundant    glue   trail         variables
c
c d 18.88 29 195 0 29 9549 23 104608 17474 2.8 18 7 1 5 24% 5488 77937 12164 33%
c u 18.91 29 195 0 29 9549 23 104608 15710 2.8 18 7 1 5 24% 5509 77937 12164 33%
c v 18.99 29 195 0 29 9549 23 104608 13173 2.8 18 7 1 5 24% 5517 77937 12164 33%
c w 19.09 29 195 0 29 9549 23 104608 12839 2.8 18 7 1 5 24% 5517 77937 12164 33%
c x 19.16 29 195 0 29 9549 23 104608 12838 2.8 18 7 1 5 24% 5517 77910 12164 33%
c = 19.53 29 195 0 29 9549 23 104608 12838 2.8 18 7 1 5 24% 6169 77861 11833 32%
c d 19.53 29 195 0 29 9549 23 104608 12416 2.8 18 7 1 5 24% 5445 77861 11833 32%
c t 19.54 29 195 0 29 9549 23 104608 12416 2.8 18 7 1 5 24% 5422 77861 11833 32%
c f 19.62 29 195 0 29 9549 23 104608 12416 2.8 18 7 1 5 24% 5461 77635 11853 32%
c u 19.69 29 195 0 29 9549 23 104608 11839 2.8 18 7 1 5 24% 5462 77635 11853 32%
c v 19.73 29 195 0 29 9549 23 104608 11388 2.8 18 7 1 5 24% 5462 77635 11853 32%
c w 19.80 29 195 0 29 9549 23 104608 11240 2.8 18 7 1 5 24% 5462 77635 11853 32%
c = 20.18 29 195 0 29 9549 23 104608 11240 2.8 18 7 1 5 24% 5644 77633 11762 32%
c d 20.19 29 195 0 29 9549 23 104608 11117 2.8 18 7 1 5 24% 5450 77633 11762 32%
c t 20.20 29 195 0 29 9549 23 104608 11117 2.8 18 7 1 5 24% 5449 77633 11762 32%
c f 20.22 29 195 0 29 9549 23 104608 11117 2.8 18 7 1 5 24% 5452 77602 11765 32%
c - 20.75 29 191 0 30 9949 23 107621 11999 2.7 18 7 1 5 24% 5453 77602 11765 32%
c o 21.07 29 187 0 30 10134 22 111633 15480 2.7 18 7 1 5 24% 5484 77601 11765 32%
c - 21.23 29 186 0 31 10236 22 113098 14594 2.7 18 7 1 5 24% 5499 77600 11765 32%
c i 21.59 29 179 0 31 10489 21 118178 18934 2.7 18 7 1 5 23% 5561 77600 11764 32%
c
c  seconds   switched      rate          size/glue tier1    binary         remaining
c         MB   reductions    conflicts         size  tier2     irredundant
c           level   restarts        redundant    glue   trail         variables
c
c - 21.68 29 179 0 32 10545 21 118666 16576 2.7 18 7 1 5 23% 5558 77600 11764 32%
c - 22.42 29 175 0 33 11012 21 124322 18251 2.7 18 7 1 5 23% 5589 77598 11764 32%
c i 22.50 29 174 0 33 11071 21 124805 18693 2.7 18 7 1 5 24% 5590 77598 11763 32%
c i 22.88 29 173 0 33 11324 21 127398 20938 2.7 18 7 1 5 24% 5612 77598 11762 32%
c - 23.25 29 172 0 34 11586 21 130066 19482 2.7 18 7 1 5 24% 5621 77598 11762 32%
c d 23.70 29 171 0 34 11895 21 132868 21675 2.7 18 7 1 5 24% 5531 77570 11704 32%
c d 23.70 29 171 0 34 11895 21 132868 21651 2.7 18 7 1 5 24% 5521 77570 11699 32%
c u 23.75 29 171 0 34 11895 21 132868 19257 2.7 18 7 1 5 24% 5548 77570 11699 32%
c v 23.84 29 171 0 34 11895 21 132868 16013 2.7 18 7 1 5 24% 5561 77570 11699 32%
c w 24.00 29 171 0 34 11895 21 132868 15816 2.7 18 7 1 5 24% 5561 77570 11699 32%
c = 24.38 29 171 0 34 11895 21 132868 15816 2.7 18 7 1 5 24% 5916 77291 11490 32%
c d 24.39 29 171 0 34 11895 21 132868 15208 2.7 18 7 1 5 24% 5521 77290 11490 32%
c t 24.39 29 171 0 34 11895 21 132868 15208 2.7 18 7 1 5 24% 5455 77290 11490 32%
c f 24.41 29 171 0 34 11895 21 132868 15208 2.7 18 7 1 5 24% 5465 77244 11494 32%
c u 24.47 29 171 0 34 11895 21 132868 14480 2.7 18 7 1 5 24% 5460 77244 11494 32%
c v 24.51 29 171 0 34 11895 21 132868 13842 2.7 18 7 1 5 24% 5460 77244 11494 32%
c w 24.65 29 171 0 34 11895 21 132868 13598 2.7 18 7 1 5 24% 5460 77244 11494 32%
c x 24.73 29 171 0 34 11895 21 132868 13555 2.7 18 7 1 5 24% 5485 72371 11494 32%
c = 25.14 29 171 0 34 11895 21 132868 13555 2.7 18 7 1 5 24% 5507 72371 11483 31%
c d 25.15 29 171 0 34 11895 21 132868 13553 2.7 18 7 1 5 24% 5484 72371 11483 31%
c
c  seconds   switched      rate          size/glue tier1    binary         remaining
c         MB   reductions    conflicts         size  tier2     irredundant
c           level   restarts        redundant    glue   trail         variables
c
c t 25.16 29 171 0 34 11895 21 132868 13553 2.7 18 7 1 5 24% 5464 72371 11483 31%
c - 25.47 29 168 0 35 12075 21 135897 13722 2.7 18 7 1 5 23% 5473 72363 11483 31%
c i 25.76 29 163 0 35 12274 20 140076 17121 2.7 18 7 1 5 23% 5522 72362 11482 31%
c i 25.78 29 162 0 35 12293 20 140290 17286 2.7 18 7 1 5 23% 5527 72362 11481 31%
c i 25.80 29 162 0 35 12298 20 140624 17541 2.7 18 7 1 5 23% 5538 72362 11480 31%
c i 25.83 29 162 0 35 12308 20 140815 17686 2.7 18 7 1 5 23% 5542 72362 11479 31%
c i 25.87 29 161 0 35 12320 20 141478 18238 2.7 18 7 1 5 23% 5549 72362 11478 31%
c - 25.93 29 160 0 36 12363 20 141814 15219 2.6 18 7 1 5 23% 5530 72362 11478 31%
c i 26.01 29 159 0 36 12416 20 143209 16448 2.6 18 7 1 5 22% 5540 72362 11477 31%
c i 26.02 29 159 0 36 12425 20 143363 16568 2.6 18 7 1 5 22% 5548 72362 11476 31%
c i 26.05 29 158 0 36 12441 20 144070 17164 2.6 18 7 1 5 22% 5555 72362 11475 31%
c i 26.07 29 157 0 36 12450 20 144333 17405 2.6 18 7 1 5 22% 5558 72362 11474 31%
c i 26.15 29 155 0 36 12551 19 146181 19090 2.6 18 7 1 5 22% 5565 72361 11473 31%
c - 26.23 29 152 0 37 12652 19 147814 16898 2.6 18 7 1 5 22% 5565 72361 11473 31%
c i 26.32 29 149 0 37 12775 19 149745 18613 2.6 18 7 1 5 21% 5584 72358 11472 31%
c i 26.32 29 150 0 37 12776 19 149753 18620 2.6 18 7 1 5 21% 5584 72358 11471 31%
c - 26.51 29 144 0 38 13017 18 153897 18135 2.6 18 7 1 5 20% 5618 72355 11471 31%
c s 26.67 29 138 0 38 13212 17 157897 21710 2.6 17 7 1 5 20% 5643 72113 11471 31%
c e 26.84 29 138 0 38 13212 17 157897 21710 2.6 17 7 1 5 20% 2967 84773 9702 27%
c 2 26.84 29 138 0 38 13212 17 157897 21710 2.6 17 7 1 5 20% 2960 84773 9702 27%
c
c  seconds   switched      rate          size/glue tier1    binary        remaining
c         MB   reductions    conflicts         size  tier2     irredundant
c           level   restarts        redundant    glue   trail        variables
c
c s 26.88 29 138 0 38 13212 17 157897 21710 2.6 17 7 1 5 20% 2979 83354 9702 27%
c e 26.91 29 138 0 38 13212 17 157897 21710 2.6 17 7 1 5 20% 2890 83701 9646 26%
c ^ 26.91 29 138 0 38 13212 17 157897 21710 2.6 17 7 1 5 20% 2890 83701 9646 26%
c i 27.00 29 137 0 38 13325 17 158888 12807 2.6 17 7 1 5 19% 2894 83700 9645 26%
c i 27.01 29 136 0 38 13333 17 159504 13333 2.6 17 7 1 5 19% 2897 83700 9644 26%
c - 27.05 29 135 0 39 13352 17 160061 11437 2.6 17 7 1 5 19% 2901 83679 9644 26%
c o 27.11 29 132 0 39 13405 17 162242 13324 2.6 17 7 1 5 19% 2916 83679 9644 26%
c i 27.13 29 131 0 39 13411 16 163060 13943 2.6 17 7 1 5 19% 2932 83678 9643 26%
c i 27.16 29 129 0 39 13411 16 164516 15039 2.6 17 7 1 5 18% 2948 83678 9642 26%
c d 27.18 29 129 0 39 13417 16 164887 14289 2.6 17 7 1 5 18% 2951 83224 9638 26%
c d 27.18 29 129 0 39 13417 16 164887 14289 2.6 17 7 1 5 18% 2933 83224 9629 26%
c u 27.24 29 129 0 39 13417 16 164887 12528 2.6 17 7 1 5 18% 2948 83224 9629 26%
c v 27.30 29 129 0 39 13417 16 164887 11206 2.6 17 7 1 5 18% 2950 83224 9629 26%
c w 27.33 29 129 0 39 13417 16 164887 11107 2.6 17 7 1 5 18% 2950 83224 9629 26%
c = 27.53 29 129 0 39 13417 16 164887 11107 2.6 17 7 1 5 18% 3004 83210 9602 26%
c d 27.54 29 129 0 39 13417 16 164887 11054 2.6 17 7 1 5 18% 2927 83210 9600 26%
c t 27.55 29 129 0 39 13417 16 164887 11054 2.6 17 7 1 5 18% 2895 83210 9600 26%
c f 27.61 29 129 0 39 13417 16 164887 11054 2.6 17 7 1 5 18% 2922 82913 9614 26%
c u 27.68 29 129 0 39 13417 16 164887 10746 2.6 17 7 1 5 18% 2930 82913 9613 26%
c v 27.73 29 129 0 39 13417 16 164887 10022 2.6 17 7 1 5 18% 2938 82913 9613 26%
c
c  seconds   switched      rate         size/glue tier1    binary        remaining
c         MB   reductions    conflicts        size  tier2     irredundant
c           level   restarts       redundant    glue   trail        variables
c
c w 27.75 29 129 0 39 13417 16 164887 9954 2.6 17 7 1 5 18% 2932 82913 9613 26%
c x 27.81 29 129 0 39 13417 16 164887 9951 2.6 17 7 1 5 18% 2943 82628 9613 26%
c = 28.02 29 129 0 39 13417 16 164887 9951 2.6 17 7 1 5 18% 2989 82578 9587 26%
c d 28.03 29 129 0 39 13417 16 164887 9855 2.6 17 7 1 5 18% 2929 82578 9587 26%
c t 28.04 29 129 0 39 13417 16 164887 9855 2.6 17 7 1 5 18% 2913 82578 9587 26%
c i 28.09 29 129 0 39 13417 16 164887 9855 2.6 17 7 1 5 18% 2912 82578 9587 26%
c i 28.11 29 127 0 39 13417 16 165836 10603 2.6 17 7 1 5 18% 2921 82578 9586 26%
c i 28.13 29 127 0 39 13420 16 166118 10816 2.6 17 7 1 5 18% 2932 82578 9585 26%
c - 28.13 29 127 0 40 13420 16 166305 9390 2.6 17 7 1 5 18% 2877 82578 9585 26%
c i 28.13 29 127 0 40 13420 16 166314 9392 2.6 17 7 1 5 18% 2878 82578 9554 26%
c i 28.13 29 127 0 40 13420 16 166332 9401 2.6 17 7 1 5 18% 2881 82578 9552 26%
c i 28.14 29 127 0 40 13420 16 166341 9402 2.6 17 7 1 5 18% 2884 82578 9548 26%
c i 28.14 29 127 0 40 13420 16 166351 9403 2.6 17 7 1 5 18% 2887 82578 9546 26%
c i 28.14 29 127 0 40 13420 16 166355 9403 2.6 17 7 1 5 18% 2888 82578 9545 26%
c } 28.14 29 127 0 40 13420 16 166357 9403 2.6 17 7 1 5 18% 2888 82578 9526 26%
c 0 28.14 29 127 0 40 13420 16 166357 9403 2.6 17 7 1 5 18% 2888 82578 9526 26%
c
c ---- [ result ] ------------------------------------------------------------
c
s UNSATISFIABLE
c
c ---- [ profiling ] ---------------------------------------------------------
c
c          18.45   65.58 %  search
c          18.45   65.58 %  focused
c           9.34   33.18 %  simplify
c           8.69   30.88 %  probe
c           3.75   13.33 %  sweep
c           3.15   11.19 %  vivify
c           0.84    2.99 %  eliminate
c           0.70    2.49 %  factor
c           0.49    1.75 %  congruence
c           0.43    1.54 %  substitute
c           0.30    1.05 %  preprocess
c           0.17    0.62 %  reduce
c           0.16    0.56 %  subsume
c           0.11    0.40 %  transitive
c           0.10    0.34 %  fastel
c           0.05    0.18 %  backbone
c           0.03    0.10 %  lucky
c           0.02    0.08 %  parse
c =============================================
c          28.14  100.00 %  total
c
c ---- [ statistics ] --------------------------------------------------------
c
c chronological:                         5231                3 %  conflicts
c conflicts:                           166357             5912.66 per second
c congruent:                             4053               11 %  variables
c decisions:                          3032788               18.23 per conflict
c eliminated:                           20273               56 %  variables
c factored:                              3708               10 %  variables
c fast_eliminated:                      11054               55 %  eliminated
c fast_strengthened:                        2                0 %  per strengthened
c fast_subsumed:                           68                0 %  per subsumed
c iterations:                              27                0 %  variables
c propagations:                     125045253          4444358    per second
c reductions:                              40             4159    interval
c reordered:                                6            27726    interval
c restarts:                             13420               12    interval
c strengthened:                          5735                0 %  checks
c substituted:                          10263               28 %  variables
c subsumed:                             14354                0 %  checks
c switched:                                 0                0    interval
c vivified:                             84901               15 %  checks
c
c ---- [ glue usage ] --------------------------------------------------------
c
c focused glue 1 used 268613 clauses 57.44% accumulated 57.44% tier1
c focused glue 2 used  97402 clauses 20.83% accumulated 78.27%
c focused glue 3 used  32898 clauses  7.03% accumulated 85.30%
c focused glue 4 used  18972 clauses  4.06% accumulated 89.36%
c focused glue 5 used  12493 clauses  2.67% accumulated 92.03% tier2
c
c ---- [ resources ] ---------------------------------------------------------
c
c maximum-resident-set-size:         30806016 bytes         29 MB
c process-time:                            28s              28.14 seconds
c
c ---- [ shutting down ] -----------------------------------------------------
c
c exit 20
